
Gurobi 13.0.2 (win64) logging started Thu Jul 23 17:04:57 2026

Set parameter LogFile to value "E:\codes\ExactEBRP\results\gf_gurobi_performance_recovery_round29\runs\stage2__moderate_seed5301__c4_candidate__300s\external\native_logs\L0.1.1.1.1.0.0.0.1_terminal_mip.gurobi.log"
Gurobi Optimizer version 13.0.2 build v13.0.2rc1 (win64 - Windows 10.0 (19045.2))

CPU model: 12th Gen Intel(R) Core(TM) i7-12700KF, instruction set [SSE2|AVX|AVX2]
Thread count: 12 physical cores, 20 logical processors, using up to 1 threads

Non-default parameters:
TimeLimit  6.0045730000001640e-01
MIPGap  0
MIPGapAbs  0
LogToConsole  0
Threads  1

Optimize a model with 11944 rows, 3386 columns and 67436 nonzeros (Min)
Model fingerprint: 0xdff42982
Model has 21 linear objective coefficients
Variable types: 1690 continuous, 1696 integer (1496 binary)
Coefficient statistics:
  Matrix range     [9e-03, 1e+04]
  Objective range  [9e-03, 1e+00]
  Bounds range     [4e-02, 2e+02]
  RHS range        [4e-02, 5e+04]

Presolve removed 1000 rows and 85 columns
Presolve time: 0.19s
Presolved: 10944 rows, 3301 columns, 85526 nonzeros
Variable types: 1637 continuous, 1664 integer (1475 binary)

Root relaxation: objective 8.360622e-02, 2782 iterations, 0.15 seconds (0.40 work units)

    Nodes    |    Current Node    |     Objective Bounds      |     Work
 Expl Unexpl |  Obj  Depth IntInf | Incumbent    BestBd   Gap | It/Node Time

     0     0    0.08361    0  183          -    0.08361      -     -    0s
     0     0          -    0               -    0.08361      -     -    0s

Explored 1 nodes (4158 simplex iterations) in 0.60 seconds (1.34 work units)
Thread count was 1 (of 20 available processors)

Solution count 0

Time limit reached
Best objective -, best bound 8.360621805559e-02, gap -

User-callback calls 809, time in user-callback 0.00 sec
